40 780
1 2 33
1 3 106
1 4 105
1 5 118
1 6 85
1 7 68
1 8 35
1 9 69
1 10 11
1 11 106
1 12 78
1 13 29
1 14 18
1 15 29
1 16 89
1 17 29
1 18 102
1 19 117
1 20 118
1 21 20
1 22 101
1 23 96
1 24 62
1 25 5
1 26 20
1 27 51
1 28 19
1 29 85
1 30 21
1 31 63
1 32 104
1 33 72
1 34 111
1 35 42
1 36 109
1 37 84
1 38 72
1 39 106
1 40 77
2 3 36
2 4 2
2 5 37
2 6 98
2 7 58
2 8 42
2 9 75
2 10 34
2 11 105
2 12 58
2 13 62
2 14 38
2 15 88
2 16 66
2 17 70
2 18 42
2 19 96
2 20 43
2 21 85
2 22 116
2 23 31
2 24 112
2 25 84
2 26 100
2 27 89
2 28 119
2 29 62
2 30 84
2 31 90
2 32 57
2 33 77
2 34 44
2 35 119
2 36 19
2 37 106
2 38 93
2 39 110
2 40 38
3 4 23
3 5 9
3 6 13
3 7 70
3 8 8
3 9 94
3 10 100
3 11 36
3 12 106
3 13 93
3 14 48
3 15 13
3 16 113
3 17 1
3 18 5
3 19 90
3 20 73
3 21 99
3 22 37
3 23 0
3 24 48
3 25 44
3 26 91
3 27 98
3 28 35
3 29 20
3 30 17
3 31 104
3 32 70
3 33 107
3 34 103
3 35 35
3 36 38
3 37 21
3 38 17
3 39 61
3 40 11
4 5 6
4 6 59
4 7 77
4 8 29
4 9 63
4 10 17
4 11 95
4 12 0
4 13 85
4 14 102
4 15 103
4 16 43
4 17 44
4 18 94
4 19 49
4 20 38
4 21 23
4 22 98
4 23 105
4 24 101
4 25 114
4 26 15
4 27 16
4 28 77
4 29 1
4 30 117
4 31 70
4 32 95
4 33 4
4 34 78
4 35 18
4 36 17
4 37 48
4 38 106
4 39 77
4 40 72
5 6 28
5 7 88
5 8 23
5 9 102
5 10 119
5 11 114
5 12 15
5 13 57
5 14 73
5 15 100
5 16 6
5 17 22
5 18 4
5 19 73
5 20 16
5 21 41
5 22 80
5 23 27
5 24 117
5 25 25
5 26 67
5 27 38
5 28 49
5 29 110
5 30 36
5 31 54
5 32 57
5 33 101
5 34 87
5 35 21
5 36 39
5 37 45
5 38 43
5 39 37
5 40 73
6 7 56
6 8 62
6 9 33
6 10 51
6 11 12
6 12 102
6 13 56
6 14 86
6 15 9
6 16 68
6 17 41
6 18 62
6 19 42
6 20 32
6 21 32
6 22 56
6 23 106
6 24 64
6 25 57
6 26 81
6 27 60
6 28 23
6 29 0
6 30 99
6 31 8
6 32 32
6 33 79
6 34 56
6 35 35
6 36 7
6 37 59
6 38 25
6 39 61
6 40 25
7 8 83
7 9 72
7 10 46
7 11 72
7 12 66
7 13 110
7 14 15
7 15 118
7 16 31
7 17 119
7 18 86
7 19 41
7 20 99
7 21 69
7 22 97
7 23 1
7 24 11
7 25 45
7 26 12
7 27 9
7 28 97
7 29 114
7 30 110
7 31 102
7 32 24
7 33 18
7 34 71
7 35 7
7 36 55
7 37 93
7 38 118
7 39 110
7 40 39
8 9 5
8 10 89
8 11 65
8 12 24
8 13 35
8 14 93
8 15 23
8 16 24
8 17 70
8 18 34
8 19 113
8 20 68
8 21 65
8 22 18
8 23 96
8 24 23
8 25 115
8 26 105
8 27 114
8 28 68
8 29 13
8 30 53
8 31 92
8 32 19
8 33 26
8 34 82
8 35 64
8 36 112
8 37 115
8 38 84
8 39 48
8 40 97
9 10 79
9 11 111
9 12 80
9 13 37
9 14 113
9 15 82
9 16 46
9 17 23
9 18 47
9 19 114
9 20 118
9 21 95
9 22 46
9 23 80
9 24 52
9 25 86
9 26 37
9 27 100
9 28 21
9 29 113
9 30 32
9 31 3
9 32 3
9 33 82
9 34 104
9 35 75
9 36 13
9 37 32
9 38 119
9 39 54
9 40 10
10 11 73
10 12 43
10 13 106
10 14 38
10 15 108
10 16 52
10 17 114
10 18 57
10 19 4
10 20 62
10 21 86
10 22 77
10 23 76
10 24 99
10 25 96
10 26 103
10 27 33
10 28 44
10 29 25
10 30 97
10 31 40
10 32 92
10 33 8
10 34 111
10 35 93
10 36 31
10 37 24
10 38 56
10 39 44
10 40 59
11 12 48
11 13 104
11 14 3
11 15 41
11 16 42
11 17 10
11 18 7
11 19 59
11 20 102
11 21 41
11 22 30
11 23 92
11 24 7
11 25 117
11 26 97
11 27 78
11 28 108
11 29 73
11 30 52
11 31 106
11 32 18
11 33 33
11 34 71
11 35 112
11 36 67
11 37 119
11 38 107
11 39 112
11 40 107
12 13 105
12 14 49
12 15 117
12 16 84
12 17 49
12 18 44
12 19 78
12 20 1
12 21 21
12 22 0
12 23 78
12 24 48
12 25 76
12 26 80
12 27 51
12 28 113
12 29 28
12 30 53
12 31 74
12 32 111
12 33 66
12 34 19
12 35 22
12 36 55
12 37 78
12 38 69
12 39 68
12 40 18
13 14 46
13 15 95
13 16 20
13 17 70
13 18 91
13 19 74
13 20 79
13 21 119
13 22 5
13 23 21
13 24 30
13 25 21
13 26 28
13 27 46
13 28 34
13 29 71
13 30 3
13 31 15
13 32 111
13 33 43
13 34 98
13 35 1
13 36 9
13 37 21
13 38 6
13 39 65
13 40 82
14 15 42
14 16 48
14 17 115
14 18 41
14 19 8
14 20 30
14 21 44
14 22 32
14 23 70
14 24 43
14 25 26
14 26 45
14 27 31
14 28 92
14 29 87
14 30 102
14 31 30
14 32 92
14 33 92
14 34 20
14 35 26
14 36 75
14 37 67
14 38 96
14 39 94
14 40 118
15 16 119
15 17 42
15 18 116
15 19 13
15 20 40
15 21 106
15 22 55
15 23 58
15 24 57
15 25 99
15 26 98
15 27 60
15 28 49
15 29 64
15 30 60
15 31 71
15 32 2
15 33 65
15 34 66
15 35 49
15 36 1
15 37 44
15 38 7
15 39 49
15 40 37
16 17 12
16 18 70
16 19 98
16 20 53
16 21 17
16 22 16
16 23 9
16 24 109
16 25 101
16 26 89
16 27 18
16 28 25
16 29 108
16 30 102
16 31 55
16 32 45
16 33 27
16 34 93
16 35 66
16 36 116
16 37 83
16 38 13
16 39 108
16 40 113
17 18 2
17 19 56
17 20 12
17 21 43
17 22 74
17 23 44
17 24 26
17 25 28
17 26 62
17 27 12
17 28 94
17 29 32
17 30 88
17 31 42
17 32 116
17 33 75
17 34 91
17 35 51
17 36 61
17 37 52
17 38 6
17 39 36
17 40 18
18 19 39
18 20 64
18 21 40
18 22 77
18 23 88
18 24 81
18 25 8
18 26 62
18 27 108
18 28 110
18 29 4
18 30 91
18 31 52
18 32 29
18 33 60
18 34 102
18 35 110
18 36 14
18 37 17
18 38 80
18 39 37
18 40 26
19 20 37
19 21 92
19 22 2
19 23 100
19 24 112
19 25 78
19 26 21
19 27 92
19 28 68
19 29 8
19 30 111
19 31 29
19 32 60
19 33 22
19 34 105
19 35 18
19 36 14
19 37 10
19 38 88
19 39 119
19 40 75
20 21 59
20 22 114
20 23 40
20 24 100
20 25 95
20 26 111
20 27 58
20 28 42
20 29 84
20 30 115
20 31 108
20 32 87
20 33 40
20 34 82
20 35 18
20 36 6
20 37 31
20 38 62
20 39 17
20 40 99
21 22 104
21 23 59
21 24 26
21 25 4
21 26 71
21 27 21
21 28 49
21 29 1
21 30 66
21 31 102
21 32 90
21 33 115
21 34 43
21 35 71
21 36 14
21 37 21
21 38 107
21 39 4
21 40 82
22 23 56
22 24 46
22 25 16
22 26 52
22 27 44
22 28 58
22 29 85
22 30 110
22 31 65
22 32 71
22 33 95
22 34 99
22 35 117
22 36 44
22 37 61
22 38 77
22 39 8
22 40 28
23 24 90
23 25 6
23 26 107
23 27 16
23 28 19
23 29 26
23 30 25
23 31 20
23 32 42
23 33 19
23 34 5
23 35 21
23 36 12
23 37 69
23 38 106
23 39 23
23 40 79
24 25 96
24 26 110
24 27 0
24 28 34
24 29 100
24 30 56
24 31 38
24 32 103
24 33 108
24 34 40
24 35 74
24 36 96
24 37 96
24 38 2
24 39 106
24 40 89
25 26 108
25 27 54
25 28 77
25 29 26
25 30 33
25 31 63
25 32 55
25 33 116
25 34 32
25 35 30
25 36 36
25 37 58
25 38 49
25 39 95
25 40 88
26 27 59
26 28 61
26 29 104
26 30 1
26 31 44
26 32 64
26 33 97
26 34 0
26 35 62
26 36 58
26 37 57
26 38 108
26 39 17
26 40 104
27 28 60
27 29 27
27 30 111
27 31 106
27 32 117
27 33 42
27 34 61
27 35 36
27 36 102
27 37 85
27 38 26
27 39 98
27 40 21
28 29 62
28 30 117
28 31 103
28 32 20
28 33 105
28 34 61
28 35 55
28 36 50
28 37 9
28 38 88
28 39 102
28 40 89
29 30 27
29 31 75
29 32 76
29 33 85
29 34 17
29 35 50
29 36 47
29 37 95
29 38 116
29 39 48
29 40 106
30 31 83
30 32 34
30 33 103
30 34 103
30 35 39
30 36 79
30 37 100
30 38 61
30 39 27
30 40 101
31 32 81
31 33 90
31 34 52
31 35 102
31 36 100
31 37 32
31 38 107
31 39 23
31 40 116
32 33 101
32 34 44
32 35 20
32 36 78
32 37 26
32 38 85
32 39 61
32 40 88
33 34 105
33 35 109
33 36 48
33 37 110
33 38 62
33 39 91
33 40 102
34 35 46
34 36 77
34 37 62
34 38 86
34 39 68
34 40 14
35 36 17
35 37 118
35 38 40
35 39 76
35 40 88
36 37 62
36 38 80
36 39 105
36 40 66
37 38 64
37 39 109
37 40 70
38 39 76
38 40 49
39 40 53
